
Gurobi 7.5.2 (win64, Python) logging started 10/11/18 21:13:50

Academic license - for non-commercial use only

Gurobi 7.5.2 (win64, Python) logging started 10/11/18 21:17:38

Academic license - for non-commercial use only
